1524
11
220240
46830
 0 1 1 690 143  15 0 87 92 89 91 90 114 118 18 85 86 111 82 88 0
 0 1 1 705 134  14 0 112 117 113 83 6 5 4 3 1 2 81 119 0
 0 1 1 720 155  14 0 84 7 9 10 11 15 14 13 12 8 109 93 0
 0 1 1 720 135  13 0 21 20 26 23 25 24 22 19 16 17 108 0
 0 1 1 693 61  12 0 29 32 35 36 34 33 30 27 31 28 0
 0 1 1 683 115  12 0 37 41 44 46 49 50 47 42 39 38 0
 0 1 1 718 145  12 0 40 43 45 48 51 65 59 57 54 52 0
 0 1 1 705 123  12 0 56 60 63 66 64 62 61 58 55 53 0
 0 1 1 537 86  12 0 105 106 107 104 103 116 100 99 101 102 0
 0 1 1 667 137  13 0 95 96 94 97 115 110 98 67 70 69 120 0
 0 1 1 686 141  13 0 73 71 74 75 72 78 80 79 77 76 68 0
